NAME 
ROWS
 N  OBJ
 L  R0      
 L  R1      
 E  R2      
COLUMNS
    MARKER    'MARKER'                 'INTORG'
    I0(3)     OBJ       -651
    I0(3)     R0        -727
    I0(3)     R1        -134
    I0(3)     R2        738
    I1(3)     OBJ       -525
    I1(3)     R0        -779
    I1(3)     R1        -12
    I1(3)     R2        144
    I2(3)     OBJ       -190
    I2(3)     R0        -156
    I2(3)     R1        -834
    I2(3)     R2        655
    I3(3)     OBJ       -585
    I3(3)     R0        -115
    I3(3)     R1        -698
    I3(3)     R2        262
    I4(3)     OBJ       -697
    I4(3)     R0        -299
    I4(3)     R1        -110
    I4(3)     R2        517
    I5(3)     OBJ       -140
    I5(3)     R0        -763
    I5(3)     R1        -618
    I5(3)     R2        195
    I6(3)     OBJ       -853
    I6(3)     R0        -692
    I6(3)     R1        -422
    I6(3)     R2        482
    I7(3)     OBJ       -571
    I7(3)     R0        -558
    I7(3)     R1        -87
    I7(3)     R2        28
    I8(3)     OBJ       -908
    I8(3)     R0        -306
    I8(3)     R1        -207
    I8(3)     R2        589
    I9(3)     OBJ       -740
    I9(3)     R0        -1000
    I9(3)     R1        -327
    I9(3)     R2        272
    I10(3)    OBJ       -221
    I10(3)    R0        -184
    I10(3)    R1        -475
    I10(3)    R2        447
    I11(3)    OBJ       -415
    I11(3)    R0        -956
    I11(3)    R1        -933
    I11(3)    R2        722
    I12(3)    OBJ       -565
    I12(3)    R0        -524
    I12(3)    R1        -106
    I12(3)    R2        283
    I13(3)    OBJ       -99
    I13(3)    R0        -373
    I13(3)    R1        -631
    I13(3)    R2        281
    I14(3)    OBJ       -785
    I14(3)    R0        -541
    I14(3)    R1        -47
    I14(3)    R2        420
    I15(3)    OBJ       -724
    I15(3)    R0        -220
    I15(3)    R1        -404
    I15(3)    R2        393
    I16(3)    OBJ       -978
    I16(3)    R0        -512
    I16(3)    R1        -394
    I16(3)    R2        898
    I17(3)    OBJ       -589
    I17(3)    R0        -394
    I17(3)    R1        -739
    I17(3)    R2        841
    I18(3)    OBJ       -906
    I18(3)    R0        -791
    I18(3)    R1        -961
    I18(3)    R2        480
    I19(3)    OBJ       -388
    I19(3)    R0        -420
    I19(3)    R1        -699
    I19(3)    R2        105
    I20(1)    R2        1
    MARKER    'MARKER'                 'INTEND'
RHS
    RHS1      R0        -6458
    RHS1      R1        -4364
    RHS1      R2        4376
BOUNDS
 UP BND1      I0(3)     1
 UP BND1      I1(3)     1
 UP BND1      I2(3)     1
 UP BND1      I3(3)     1
 UP BND1      I4(3)     1
 UP BND1      I5(3)     1
 UP BND1      I6(3)     1
 UP BND1      I7(3)     1
 UP BND1      I8(3)     1
 UP BND1      I9(3)     1
 UP BND1      I10(3)    1
 UP BND1      I11(3)    1
 UP BND1      I12(3)    1
 UP BND1      I13(3)    1
 UP BND1      I14(3)    1
 UP BND1      I15(3)    1
 UP BND1      I16(3)    1
 UP BND1      I17(3)    1
 UP BND1      I18(3)    1
 UP BND1      I19(3)    1
 LI BND1      I20(1)    0
ENDATA
